computational_data/real_data/logs/iris_trial_019.log
Welcome to the CBC MILP Solver 
Version: 2.10.12 
Build Date: Aug 20 2024 

command line - /opt/homebrew/bin/cbc computational_data/real_data/lp/iris_trial_019.lp seconds 10.0 solve solu computational_data/real_data/solutions/iris_trial_019.sol (default strategy 1)
seconds was changed from 1e+100 to 10
Continuous objective value is 4.53333 - 0.00 seconds
Cgl0003I 0 fixed, 0 tightened bounds, 185 strengthened rows, 8 substitutions
Cgl0003I 0 fixed, 0 tightened bounds, 163 strengthened rows, 0 substitutions
Cgl0003I 0 fixed, 0 tightened bounds, 155 strengthened rows, 0 substitutions
Cgl0003I 0 fixed, 0 tightened bounds, 151 strengthened rows, 0 substitutions
Cgl0003I 0 fixed, 0 tightened bounds, 144 strengthened rows, 0 substitutions
Cgl0003I 0 fixed, 0 tightened bounds, 133 strengthened rows, 0 substitutions
Cgl0003I 0 fixed, 0 tightened bounds, 124 strengthened rows, 0 substitutions
Cgl0003I 0 fixed, 0 tightened bounds, 111 strengthened rows, 0 substitutions
Cgl0003I 0 fixed, 0 tightened bounds, 106 strengthened rows, 0 substitutions
Cgl0004I processed model has 149 rows, 28 columns (28 integer (28 of which binary)) and 1621 elements
Cutoff increment increased from 1e-05 to 0.9999
Cbc0038I Initial state - 28 integers unsatisfied sum - 1.86667
Cbc0038I Pass   1: suminf.    1.86667 (28) obj. 5.86667 iterations 0
Cbc0038I Pass   2: suminf.    1.36364 (15) obj. 6.18182 iterations 38
Cbc0038I Pass   3: suminf.    0.00000 (0) obj. 6 iterations 33
Cbc0038I Solution found of 6
Cbc0038I Before mini branch and bound, 0 integers at bound fixed and 0 continuous
Cbc0038I Mini branch and bound did not improve solution (0.02 seconds)
Cbc0038I After 0.02 seconds - Feasibility pump exiting with objective of 6 - took 0.00 seconds
Cbc0012I Integer solution of 6 found by feasibility pump after 0 iterations and 0 nodes (0.02 seconds)
Cbc0001I Search completed - best objective 6, took 0 iterations and 0 nodes (0.02 seconds)
Cbc0035I Maximum depth 0, 0 variables fixed on reduced cost
Cuts at root node changed objective from 5.86667 to 5.86667
Probing was tried 0 times and created 0 cuts of which 0 were active after adding rounds of cuts (0.000 seconds)
Gomory was tried 0 times and created 0 cuts of which 0 were active after adding rounds of cuts (0.000 seconds)
Knapsack was tried 0 times and created 0 cuts of which 0 were active after adding rounds of cuts (0.000 seconds)
Clique was tried 0 times and created 0 cuts of which 0 were active after adding rounds of cuts (0.000 seconds)
MixedIntegerRounding2 was tried 0 times and created 0 cuts of which 0 were active after adding rounds of cuts (0.000 seconds)
FlowCover was tried 0 times and created 0 cuts of which 0 were active after adding rounds of cuts (0.000 seconds)
TwoMirCuts was tried 0 times and created 0 cuts of which 0 were active after adding rounds of cuts (0.000 seconds)
ZeroHalf was tried 0 times and created 0 cuts of which 0 were active after adding rounds of cuts (0.000 seconds)

Result - Optimal solution found

Objective value:                6.00000000
Enumerated nodes:               0
Total iterations:               0
Time (CPU seconds):             0.02
Time (Wallclock seconds):       0.02

Total time (CPU seconds):       0.02   (Wallclock seconds):       0.02

